qbf_easy_train/easy_1115_SAT.qdimacs
p cnf 21 48
a 10 15 0
e 1 2 3 4 5 6 7 8 9 11 12 13 14 16 17 18 19 20 21 0
-1 2 -3 0
1 -2 -3 0
-1 -2 3 0
1 2 3 0
-5 3 0
-5 -4 0
-3 4 5 0
-5 6 -7 0
5 -6 -7 0
-5 -6 7 0
5 6 7 0
-8 -1 0
-8 -7 0
1 7 8 0
11 -9 0
11 -10 0
9 10 -11 0
12 -8 0
12 -11 0
8 11 -12 0
14 -4 0
14 13 0
4 -13 -14 0
16 9 0
16 6 0
-9 -6 -16 0
15 16 -17 0
-15 -16 -17 0
15 -16 17 0
-15 16 17 0
-14 17 -18 0
14 -17 -18 0
-14 -17 18 0
14 17 18 0
19 -5 0
19 -9 0
5 9 -19 0
20 -18 0
20 -19 0
18 19 -20 0
21 -12 0
21 -20 0
12 20 -21 0
-2 16 6 -11 -20 0
4 2 -15 -9 18 -17 0
6 -11 2 0
7 -9 3 8 0
21 0
