sat_easy_train/easy_1115_SAT.dimacs
p cnf 87 267
3 -1 0
3 2 0
1 -2 -3 0
5 -3 0
5 4 0
3 -4 -5 0
5 -6 -7 0
-5 6 -7 0
5 6 7 0
-5 -6 7 0
-11 -10 0
-11 10 0
-12 -9 0
-12 -11 0
9 11 12 0
14 13 0
14 6 0
-13 -6 -14 0
-15 -13 0
-15 11 0
13 -11 15 0
14 15 -16 0
-14 -15 -16 0
14 -15 16 0
-14 15 16 0
17 -12 0
17 16 0
12 -16 -17 0
19 -17 0
19 18 0
17 -18 -19 0
20 -8 0
20 19 0
8 -19 -20 0
7 20 -21 0
-7 -20 -21 0
7 -20 21 0
-7 20 21 0
-22 6 -23 0
22 -6 -23 0
-22 -6 23 0
22 6 23 0
24 11 0
24 23 0
-11 -23 -24 0
25 4 0
25 24 0
-4 -24 -25 0
-26 13 0
-26 -8 0
-13 8 26 0
-27 3 0
-27 26 0
-3 -26 27 0
-28 -25 0
-28 27 0
25 -27 28 0
30 9 0
30 29 0
-9 -29 -30 0
-31 30 0
-31 -29 0
-30 29 31 0
-32 28 0
-32 -31 0
-28 31 32 0
-21 -32 -33 0
21 32 -33 0
-21 32 33 0
21 -32 33 0
34 -3 0
34 -5 0
3 5 -34 0
-29 34 -35 0
29 -34 -35 0
-29 -34 35 0
29 34 35 0
37 6 0
37 -36 0
-6 36 -37 0
-38 -9 0
-38 10 0
9 -10 38 0
37 -38 -39 0
-37 38 -39 0
37 38 39 0
-37 -38 39 0
40 -35 0
40 -39 0
35 39 -40 0
41 -33 0
41 40 0
33 -40 -41 0
-13 19 -42 0
13 -19 -42 0
-13 -19 42 0
13 19 42 0
-43 -5 0
-43 -6 0
5 6 43 0
44 -42 0
44 -43 0
42 43 -44 0
-45 -8 0
-45 30 0
8 -30 45 0
-47 16 0
-47 -46 0
-16 46 47 0
-47 46 -48 0
47 -46 -48 0
-47 -46 48 0
47 46 48 0
-48 34 -49 0
48 -34 -49 0
-48 -34 49 0
48 34 49 0
50 -45 0
50 49 0
45 -49 -50 0
51 37 0
51 -30 0
-37 30 -51 0
50 -51 -52 0
-50 51 -52 0
50 51 52 0
-50 -51 52 0
-53 46 0
-53 17 0
-46 -17 53 0
-54 53 0
-54 27 0
-53 -27 54 0
55 -10 0
55 22 0
10 -22 -55 0
56 54 0
56 55 0
-54 -55 -56 0
-57 52 0
-57 -56 0
-52 56 57 0
59 58 0
59 -5 0
-58 5 -59 0
-59 -15 -60 0
59 15 -60 0
-59 15 60 0
59 -15 60 0
61 6 0
61 -38 0
-6 38 -61 0
63 61 0
63 62 0
-61 -62 -63 0
64 60 0
64 -63 0
-60 63 -64 0
-65 -26 0
-65 6 0
26 -6 65 0
-66 64 0
-66 65 0
-64 -65 66 0
47 -62 -67 0
-47 62 -67 0
47 62 67 0
-47 -62 67 0
68 -36 0
68 -18 0
36 18 -68 0
69 -9 0
69 68 0
9 -68 -69 0
-67 69 -70 0
67 -69 -70 0
-67 -69 70 0
67 69 70 0
71 -12 0
71 3 0
12 -3 -71 0
-72 -70 0
-72 71 0
70 -71 72 0
-73 -66 0
-73 72 0
66 -72 73 0
-57 -73 -74 0
57 73 -74 0
-57 73 74 0
57 -73 74 0
75 44 0
75 -74 0
-44 74 -75 0
-8 -16 -76 0
8 16 -76 0
-8 16 76 0
8 -16 76 0
-77 -13 0
-77 14 0
13 -14 77 0
18 -53 -78 0
-18 53 -78 0
18 53 78 0
-18 -53 78 0
79 -77 0
79 -78 0
77 78 -79 0
-80 -76 0
-80 -79 0
76 79 80 0
-1 30 -82 0
1 -30 -82 0
-1 -30 82 0
1 30 82 0
-83 -14 0
-83 -82 0
14 82 83 0
-84 -81 0
-84 83 0
81 -83 84 0
80 84 -85 0
-80 -84 -85 0
80 -84 85 0
-80 84 85 0
-86 75 0
-86 85 0
-75 -85 86 0
87 41 0
87 86 0
-41 -86 -87 0
19 29 26 -8 62 -52 0
-29 -83 -49 63 -41 0
22 -13 -46 0
-50 20 82 78 34 0
66 56 24 67 -85 0
44 83 -54 23 59 0
73 -3 64 0
-72 -53 25 30 -55 0
34 -17 7 -81 58 0
-77 -85 -78 59 -61 0
-65 -50 84 -73 0
21 -5 0
-83 43 -25 6 0
1 -63 -25 0
4 -27 0
64 38 -8 0
65 19 -70 59 4 0
-32 -31 -72 -27 -86 0
-82 14 0
42 -86 -55 -29 0
71 21 -28 0
52 66 -37 15 -61 0
72 -32 -87 -20 31 0
-18 -48 19 87 -53 5 0
-8 51 0
-26 -56 30 71 0
-50 8 45 -26 46 -36 0
41 -50 -25 -87 0
-87 -71 42 -10 -14 -60 0
52 77 45 -19 0
83 49 0
33 61 -10 -66 0
-7 -28 8 -3 0
-47 2 0
-44 39 0
87 0
